# Plate Description Version 3
# HALCON Version 12.0 --  Fri Sep 15 16:50:00 2017
# Description of the standard calibration plate
# used for the camera calibration in HALCON
# (generated by create_caltab)
#
#

# 7 rows x 11 columns
# Width, height of calibration plate [meter]: 0.45, 0.254238
# Distance between mark centers [meter]: 0.036

# Number of marks in y-dimension (rows)
r 7

# Number of marks in x-dimension (columns)
c 11

# offset of coordinate system in z-dimension [meter] (optional):
z 0

# rim of the calibration plate (min x, max y, max x, min y) [meter]:
o -0.207 0.10735382907248 0.261 -0.169707658144959

# polarity of the marks (light or dark):
p light

# number of finder pattern marks:
f 3

# position of the finder patterns (central mark):  x y [index]
4 4
1 1
9 1

# calibration marks:  x y radius [meter]

# calibration marks at y = -0.124708 m
-0.144 -0.124707658144959 0.009
-0.108 -0.124707658144959 0.009
-0.072 -0.124707658144959 0.009
-0.036 -0.124707658144959 0.009
0 -0.124707658144959 0.009
0.036 -0.124707658144959 0.009
0.072 -0.124707658144959 0.009
0.108 -0.124707658144959 0.009
0.144 -0.124707658144959 0.009
0.18 -0.124707658144959 0.009
0.216 -0.124707658144959 0.009

# calibration marks at y = -0.0935307 m
-0.162 -0.0935307436087194 0.009
-0.126 -0.0935307436087194 0.009
-0.09 -0.0935307436087194 0.009
-0.054 -0.0935307436087194 0.009
-0.018 -0.0935307436087194 0.009
0.018 -0.0935307436087194 0.009
0.054 -0.0935307436087194 0.009
0.09 -0.0935307436087194 0.009
0.126 -0.0935307436087194 0.009
0.162 -0.0935307436087194 0.009
0.198 -0.0935307436087194 0.009

# calibration marks at y = -0.0623538 m
-0.144 -0.0623538290724796 0.009
-0.108 -0.0623538290724796 0.009
-0.072 -0.0623538290724796 0.009
-0.036 -0.0623538290724796 0.009
0 -0.0623538290724796 0.009
0.036 -0.0623538290724796 0.009
0.072 -0.0623538290724796 0.009
0.108 -0.0623538290724796 0.009
0.144 -0.0623538290724796 0.009
0.18 -0.0623538290724796 0.009
0.216 -0.0623538290724796 0.009

# calibration marks at y = -0.0311769 m
-0.162 -0.0311769145362398 0.009
-0.126 -0.0311769145362398 0.009
-0.09 -0.0311769145362398 0.009
-0.054 -0.0311769145362398 0.009
-0.018 -0.0311769145362398 0.009
0.018 -0.0311769145362398 0.009
0.054 -0.0311769145362398 0.009
0.09 -0.0311769145362398 0.009
0.126 -0.0311769145362398 0.009
0.162 -0.0311769145362398 0.009
0.198 -0.0311769145362398 0.009

# calibration marks at y = 0 m
-0.144 0 0.009
-0.108 0 0.009
-0.072 0 0.009
-0.036 0 0.009
0 0 0.009
0.036 0 0.009
0.072 0 0.009
0.108 0 0.009
0.144 0 0.009
0.18 0 0.009
0.216 0 0.009

# calibration marks at y = 0.0311769 m
-0.162 0.0311769145362398 0.009
-0.126 0.0311769145362398 0.009
-0.09 0.0311769145362398 0.009
-0.054 0.0311769145362398 0.009
-0.018 0.0311769145362398 0.009
0.018 0.0311769145362398 0.009
0.054 0.0311769145362398 0.009
0.09 0.0311769145362398 0.009
0.126 0.0311769145362398 0.009
0.162 0.0311769145362398 0.009
0.198 0.0311769145362398 0.009

# calibration marks at y = 0.0623538 m
-0.144 0.0623538290724796 0.009
-0.108 0.0623538290724796 0.009
-0.072 0.0623538290724796 0.009
-0.036 0.0623538290724796 0.009
0 0.0623538290724796 0.009
0.036 0.0623538290724796 0.009
0.072 0.0623538290724796 0.009
0.108 0.0623538290724796 0.009
0.144 0.0623538290724796 0.009
0.18 0.0623538290724796 0.009
0.216 0.0623538290724796 0.009
